% Instancia 3: 3 LINACs, 4 pacientes, 5 sesiones

m = 3;
p = 4;
s = 5;

disponible = [| 8, 8, 8, 8, 8, 8, 8, 8, 8, 8, 8, 8, 8, 8, 8, 8, 8, 8, 8, 8, 8
              | 6, 6, 6, 6, 6, 6, 6, 6, 6, 6, 6, 6, 6, 6, 6, 6, 6, 6, 6, 6, 6
              | 4, 4, 4, 4, 4, 4, 4, 4, 4, 4, 4, 4, 4, 4, 4, 4, 4, 4, 4, 4, 4 |];

solicitud = [1, 2, 3, 4];

duracion = [| 2, 1, 2, 1, 1
            | 1, 1, 2, 1, 2
            | 2, 2, 1, 2, 2
            | 1, 2, 1, 2, 1 |];

separacion = [| 0, 2, 1, 1, 2
              | 0, 1, 1, 2, 1
              | 0, 2, 1, 1, 1
              | 0, 1, 2, 1, 1 |];
